\ LP format - for model browsing. Use MPS format to capture full model detail.
Maximize
  - 99968.53696906136 ICU-Bounces[0,age_group_0_9]
   - 99968.53696906136 ICU-Bounces[0,age_group_10_19]
   - 99942.31777661249 ICU-Bounces[0,age_group_20_29]
   - 99900.36706869428 ICU-Bounces[0,age_group_30_39]
   - 99826.95332983744 ICU-Bounces[0,age_group_40_49]
   - 99659.15049816466 ICU-Bounces[0,age_group_50_59]
   - 99339.2763502884 ICU-Bounces[0,age_group_60_69]
   - 98898.79391714736 ICU-Bounces[0,age_group_70_79]
   - 98342.94703723125 ICU-Bounces[0,age_group_80_plus]
   - 99968.53696906136 ICU-Bounces[1,age_group_0_9]
   - 99968.53696906136 ICU-Bounces[1,age_group_10_19]
   - 99942.31777661249 ICU-Bounces[1,age_group_20_29]
   - 99900.36706869428 ICU-Bounces[1,age_group_30_39]
   - 99826.95332983744 ICU-Bounces[1,age_group_40_49]
   - 99659.15049816466 ICU-Bounces[1,age_group_50_59]
   - 99339.2763502884 ICU-Bounces[1,age_group_60_69]
   - 98898.79391714736 ICU-Bounces[1,age_group_70_79]
   - 98342.94703723125 ICU-Bounces[1,age_group_80_plus]
   - 99968.53696906136 ICU-Bounces[2,age_group_0_9]
   - 99968.53696906136 ICU-Bounces[2,age_group_10_19]
   - 99942.31777661249 ICU-Bounces[2,age_group_20_29]
   - 99900.36706869428 ICU-Bounces[2,age_group_30_39]
   - 99826.95332983744 ICU-Bounces[2,age_group_40_49]
   - 99659.15049816466 ICU-Bounces[2,age_group_50_59]
   - 99339.2763502884 ICU-Bounces[2,age_group_60_69]
   - 98898.79391714736 ICU-Bounces[2,age_group_70_79]
   - 98342.94703723125 ICU-Bounces[2,age_group_80_plus]
   - 99968.53696906136 ICU-Bounces[3,age_group_0_9]
   - 99968.53696906136 ICU-Bounces[3,age_group_10_19]
   - 99942.31777661249 ICU-Bounces[3,age_group_20_29]
   - 99900.36706869428 ICU-Bounces[3,age_group_30_39]
   - 99826.95332983744 ICU-Bounces[3,age_group_40_49]
   - 99659.15049816466 ICU-Bounces[3,age_group_50_59]
   - 99339.2763502884 ICU-Bounces[3,age_group_60_69]
   - 98898.79391714736 ICU-Bounces[3,age_group_70_79]
   - 98342.94703723125 ICU-Bounces[3,age_group_80_plus]
   - 100000 ICU-Bounces[4,age_group_0_9]
   - 100000 ICU-Bounces[4,age_group_10_19]
   - 100000 ICU-Bounces[4,age_group_20_29]
   - 100000 ICU-Bounces[4,age_group_30_39]
   - 100000 ICU-Bounces[4,age_group_40_49]
   - 100000 ICU-Bounces[4,age_group_50_59]
   - 100000 ICU-Bounces[4,age_group_60_69]
   - 100000 ICU-Bounces[4,age_group_70_79]
   - 100000 ICU-Bounces[4,age_group_80_plus]
   - 99954.23340961098 H-Bounces[0,age_group_0_9]
   - 99954.23340961098 H-Bounces[0,age_group_10_19]
   - 99916.09458428681 H-Bounces[0,age_group_20_29]
   - 99855.07246376811 H-Bounces[0,age_group_30_39]
   - 99748.28375286041 H-Bounces[0,age_group_40_49]
   - 99504.19527078565 H-Bounces[0,age_group_50_59]
   - 99038.90160183066 H-Bounces[0,age_group_60_69]
   - 98398.16933638444 H-Bounces[0,age_group_70_79]
   - 97589.62623951182 H-Bounces[0,age_group_80_plus]
   - 99954.23340961098 H-Bounces[1,age_group_0_9]
   - 99954.23340961098 H-Bounces[1,age_group_10_19]
   - 99916.09458428681 H-Bounces[1,age_group_20_29]
   - 99855.07246376811 H-Bounces[1,age_group_30_39]
   - 99748.28375286041 H-Bounces[1,age_group_40_49]
   - 99504.19527078565 H-Bounces[1,age_group_50_59]
   - 99038.90160183066 H-Bounces[1,age_group_60_69]
   - 98398.16933638444 H-Bounces[1,age_group_70_79]
   - 97589.62623951182 H-Bounces[1,age_group_80_plus]
   - 99954.23340961098 H-Bounces[2,age_group_0_9]
   - 99954.23340961098 H-Bounces[2,age_group_10_19]
   - 99916.09458428681 H-Bounces[2,age_group_20_29]
   - 99855.07246376811 H-Bounces[2,age_group_30_39]
   - 99748.28375286041 H-Bounces[2,age_group_40_49]
   - 99504.19527078565 H-Bounces[2,age_group_50_59]
   - 99038.90160183066 H-Bounces[2,age_group_60_69]
   - 98398.16933638444 H-Bounces[2,age_group_70_79]
   - 97589.62623951182 H-Bounces[2,age_group_80_plus]
   - 99954.23340961098 H-Bounces[3,age_group_0_9]
   - 99954.23340961098 H-Bounces[3,age_group_10_19]
   - 99916.09458428681 H-Bounces[3,age_group_20_29]
   - 99855.07246376811 H-Bounces[3,age_group_30_39]
   - 99748.28375286041 H-Bounces[3,age_group_40_49]
   - 99504.19527078565 H-Bounces[3,age_group_50_59]
   - 99038.90160183066 H-Bounces[3,age_group_60_69]
   - 98398.16933638444 H-Bounces[3,age_group_70_79]
   - 97589.62623951182 H-Bounces[3,age_group_80_plus]
   - 100000 H-Bounces[4,age_group_0_9]
   - 100000 H-Bounces[4,age_group_10_19]
   - 100000 H-Bounces[4,age_group_20_29]
   - 100000 H-Bounces[4,age_group_30_39]
   - 100000 H-Bounces[4,age_group_40_49]
   - 100000 H-Bounces[4,age_group_50_59]
   - 100000 H-Bounces[4,age_group_60_69]
   - 100000 H-Bounces[4,age_group_70_79]
   - 100000 H-Bounces[4,age_group_80_plus]
   + 0.6758158649910544 a-tests[0,age_group_20_29]
   + 0.6362737626953487 a-tests[0,age_group_30_39]
   + 0.2170603458907614 a-tests[0,age_group_40_49]
   + 0.6947360239996123 a-tests[1,age_group_20_29]
   + 0.6565159548313213 a-tests[1,age_group_30_39]
   + 0.2177911613171091 a-tests[1,age_group_40_49]
   + 0.7141109032789236 a-tests[2,age_group_20_29]
   + 0.6694170015446943 a-tests[2,age_group_30_39]
   + 0.2192493013572445 a-tests[2,age_group_40_49]
   + 1.77636e-15 a-tests[2,age_group_50_59]
   + 0.729500255998444 a-tests[3,age_group_20_29]
   + 0.6832797818941829 a-tests[3,age_group_30_39]
   + 0.220722043978359 a-tests[3,age_group_40_49]
   + 1.3384779109866228e-04 m-tests[0,age_group_0_9]
   + 1.3679024260304363e-04 m-tests[0,age_group_10_19]
   - 0.00624654406726847 m-tests[0,age_group_20_29]
   - 0.1624988216962552 m-tests[0,age_group_30_39]
   - 0.232852394527678 m-tests[0,age_group_40_49]
   - 0.1325235143076536 m-tests[0,age_group_50_59]
   + 0.0446781382206421 m-tests[0,age_group_60_69]
   + 0.1300595042016834 m-tests[0,age_group_70_79]
   + 0.2264417831508199 m-tests[0,age_group_80_plus]
   + 7.64495e-05 m-tests[1,age_group_0_9]
   + 7.74191e-05 m-tests[1,age_group_10_19]
   + 0.00587505570291827 m-tests[1,age_group_20_29]
   - 0.0829285356242629 m-tests[1,age_group_30_39]
   - 0.1314760745860448 m-tests[1,age_group_40_49]
   - 0.0748904933783593 m-tests[1,age_group_50_59]
   + 0.0255135219269453 m-tests[1,age_group_60_69]
   + 0.0741240740642177 m-tests[1,age_group_70_79]
   + 0.1532198142758142 m-tests[1,age_group_80_plus]
   + 1.35525e-20 m-tests[2,age_group_0_9]
   - 4.33681e-19 m-tests[2,age_group_10_19]
   + 0.0215151518966843 m-tests[2,age_group_20_29]
   + 0.0200693982565787 m-tests[2,age_group_30_39]
   + 0.00208708985880501 m-tests[2,age_group_40_49]
   - 3.46945e-18 m-tests[2,age_group_50_59]
   - 6.93889e-18 m-tests[2,age_group_60_69]
   - 1.38778e-17 m-tests[2,age_group_70_79]
   + 2.77556e-17 m-tests[2,age_group_80_plus]
   + 2.5319046738552265e+09 Constant
Subject To
 HCAP[0]: - H-Bounces[0,age_group_0_9] - H-Bounces[0,age_group_10_19]
   - H-Bounces[0,age_group_20_29] - H-Bounces[0,age_group_30_39]
   - H-Bounces[0,age_group_40_49] - H-Bounces[0,age_group_50_59]
   - H-Bounces[0,age_group_60_69] - H-Bounces[0,age_group_70_79]
   - H-Bounces[0,age_group_80_plus] <= 1.999594924252915e+07
 HCAP[1]: - 0.92372234935164 H-Bounces[0,age_group_0_9]
   - 0.92372234935164 H-Bounces[0,age_group_10_19]
   - 0.92372234935164 H-Bounces[0,age_group_20_29]
   - 0.9237223493516399 H-Bounces[0,age_group_30_39]
   - 0.92372234935164 H-Bounces[0,age_group_40_49]
   - 0.9237223493516399 H-Bounces[0,age_group_50_59]
   - 0.92372234935164 H-Bounces[0,age_group_60_69]
   - 0.92372234935164 H-Bounces[0,age_group_70_79]
   - 0.92372234935164 H-Bounces[0,age_group_80_plus]
   - H-Bounces[1,age_group_0_9] - H-Bounces[1,age_group_10_19]
   - H-Bounces[1,age_group_20_29] - H-Bounces[1,age_group_30_39]
   - H-Bounces[1,age_group_40_49] - H-Bounces[1,age_group_50_59]
   - H-Bounces[1,age_group_60_69] - H-Bounces[1,age_group_70_79]
   - H-Bounces[1,age_group_80_plus] + 5.58847e-06 m-tests[0,age_group_0_9]
   + 5.71132e-06 m-tests[0,age_group_10_19]
   + 1.8379e-05 m-tests[0,age_group_20_29]
   + 6.36255e-05 m-tests[0,age_group_30_39]
   + 6.96314e-05 m-tests[0,age_group_40_49]
   + 1.0676372725208736e-04 m-tests[0,age_group_50_59]
   + 1.2373441115323116e-04 m-tests[0,age_group_60_69]
   + 1.5113741250243187e-04 m-tests[0,age_group_70_79]
   + 2.0631669129044259e-04 m-tests[0,age_group_80_plus]
   <= 1.9995979407543365e+07
 HCAP[2]: - 0.92372234935164 H-Bounces[1,age_group_0_9]
   - 0.92372234935164 H-Bounces[1,age_group_10_19]
   - 0.92372234935164 H-Bounces[1,age_group_20_29]
   - 0.9237223493516399 H-Bounces[1,age_group_30_39]
   - 0.92372234935164 H-Bounces[1,age_group_40_49]
   - 0.9237223493516399 H-Bounces[1,age_group_50_59]
   - 0.92372234935164 H-Bounces[1,age_group_60_69]
   - 0.92372234935164 H-Bounces[1,age_group_70_79]
   - 0.92372234935164 H-Bounces[1,age_group_80_plus]
   - H-Bounces[2,age_group_0_9] - H-Bounces[2,age_group_10_19]
   - H-Bounces[2,age_group_20_29] - H-Bounces[2,age_group_30_39]
   - H-Bounces[2,age_group_40_49] - H-Bounces[2,age_group_50_59]
   - H-Bounces[2,age_group_60_69] - H-Bounces[2,age_group_70_79]
   - H-Bounces[2,age_group_80_plus] - 1.39712e-06 m-tests[0,age_group_0_9]
   - 1.42783e-06 m-tests[0,age_group_10_19]
   - 4.59474e-06 m-tests[0,age_group_20_29]
   - 1.59064e-05 m-tests[0,age_group_30_39]
   - 1.74079e-05 m-tests[0,age_group_40_49]
   - 2.66909e-05 m-tests[0,age_group_50_59]
   - 3.09336e-05 m-tests[0,age_group_60_69]
   - 3.77844e-05 m-tests[0,age_group_70_79]
   - 5.15792e-05 m-tests[0,age_group_80_plus]
   + 5.58591e-06 m-tests[1,age_group_0_9]
   + 5.65676e-06 m-tests[1,age_group_10_19]
   + 1.79808e-05 m-tests[1,age_group_20_29]
   + 6.27422e-05 m-tests[1,age_group_30_39]
   + 6.9277e-05 m-tests[1,age_group_40_49]
   + 1.0558337090996821e-04 m-tests[1,age_group_50_59]
   + 1.2365278167701001e-04 m-tests[1,age_group_60_69]
   + 1.5073955146296868e-04 m-tests[1,age_group_70_79]
   + 2.4430411292874235e-04 m-tests[1,age_group_80_plus]
   <= 1.9995999319288298e+07
 HCAP[3]: - 0.92372234935164 H-Bounces[2,age_group_0_9]
   - 0.92372234935164 H-Bounces[2,age_group_10_19]
   - 0.92372234935164 H-Bounces[2,age_group_20_29]
   - 0.9237223493516399 H-Bounces[2,age_group_30_39]
   - 0.92372234935164 H-Bounces[2,age_group_40_49]
   - 0.9237223493516399 H-Bounces[2,age_group_50_59]
   - 0.92372234935164 H-Bounces[2,age_group_60_69]
   - 0.92372234935164 H-Bounces[2,age_group_70_79]
   - 0.92372234935164 H-Bounces[2,age_group_80_plus]
   - H-Bounces[3,age_group_0_9] - H-Bounces[3,age_group_10_19]
   - H-Bounces[3,age_group_20_29] - H-Bounces[3,age_group_30_39]
   - H-Bounces[3,age_group_40_49] - H-Bounces[3,age_group_50_59]
   - H-Bounces[3,age_group_60_69] - H-Bounces[3,age_group_70_79]
   - H-Bounces[3,age_group_80_plus] - 2.33839e-06 m-tests[0,age_group_0_9]
   - 2.38979e-06 m-tests[0,age_group_10_19]
   - 7.69032e-06 m-tests[0,age_group_20_29]
   - 2.66228e-05 m-tests[0,age_group_30_39]
   - 2.91359e-05 m-tests[0,age_group_40_49]
   - 4.46732e-05 m-tests[0,age_group_50_59]
   - 5.17743e-05 m-tests[0,age_group_60_69]
   - 6.32405e-05 m-tests[0,age_group_70_79]
   - 8.63292e-05 m-tests[0,age_group_80_plus]
   - 1.39648e-06 m-tests[1,age_group_0_9]
   - 1.41419e-06 m-tests[1,age_group_10_19]
   - 4.49521e-06 m-tests[1,age_group_20_29]
   - 1.56856e-05 m-tests[1,age_group_30_39]
   - 1.73193e-05 m-tests[1,age_group_40_49]
   - 2.63958e-05 m-tests[1,age_group_50_59]
   - 3.09132e-05 m-tests[1,age_group_60_69]
   - 3.76849e-05 m-tests[1,age_group_70_79]
   - 6.1076e-05 m-tests[1,age_group_80_plus]
   + 5.58331e-06 m-tests[2,age_group_0_9]
   + 5.59172e-06 m-tests[2,age_group_10_19]
   + 1.76998e-05 m-tests[2,age_group_20_29]
   + 6.24679e-05 m-tests[2,age_group_30_39]
   + 6.84546e-05 m-tests[2,age_group_40_49]
   + 1.0517656933906588e-04 m-tests[2,age_group_50_59]
   + 1.2218170725944685e-04 m-tests[2,age_group_60_69]
   + 1.4649937624741625e-04 m-tests[2,age_group_70_79]
   + 2.6883184794818408e-04 m-tests[2,age_group_80_plus]
   <= 1.9996011979390062e+07
 HCAP[4]: - 0.92372234935164 H-Bounces[3,age_group_0_9]
   - 0.92372234935164 H-Bounces[3,age_group_10_19]
   - 0.92372234935164 H-Bounces[3,age_group_20_29]
   - 0.9237223493516399 H-Bounces[3,age_group_30_39]
   - 0.92372234935164 H-Bounces[3,age_group_40_49]
   - 0.9237223493516399 H-Bounces[3,age_group_50_59]
   - 0.92372234935164 H-Bounces[3,age_group_60_69]
   - 0.92372234935164 H-Bounces[3,age_group_70_79]
   - 0.92372234935164 H-Bounces[3,age_group_80_plus]
   - H-Bounces[4,age_group_0_9] - H-Bounces[4,age_group_10_19]
   - H-Bounces[4,age_group_20_29] - H-Bounces[4,age_group_30_39]
   - H-Bounces[4,age_group_40_49] - H-Bounces[4,age_group_50_59]
   - H-Bounces[4,age_group_60_69] - H-Bounces[4,age_group_70_79]
   - H-Bounces[4,age_group_80_plus] - 1.75379e-06 m-tests[0,age_group_0_9]
   - 1.79234e-06 m-tests[0,age_group_10_19]
   - 5.76774e-06 m-tests[0,age_group_20_29]
   - 1.99671e-05 m-tests[0,age_group_30_39]
   - 2.18519e-05 m-tests[0,age_group_40_49]
   - 3.35049e-05 m-tests[0,age_group_50_59]
   - 3.88307e-05 m-tests[0,age_group_60_69]
   - 4.74304e-05 m-tests[0,age_group_70_79]
   - 6.47469e-05 m-tests[0,age_group_80_plus]
   - 2.33732e-06 m-tests[1,age_group_0_9]
   - 2.36696e-06 m-tests[1,age_group_10_19]
   - 7.52373e-06 m-tests[1,age_group_20_29]
   - 2.62533e-05 m-tests[1,age_group_30_39]
   - 2.89876e-05 m-tests[1,age_group_40_49]
   - 4.41793e-05 m-tests[1,age_group_50_59]
   - 5.17401e-05 m-tests[1,age_group_60_69]
   - 6.3074e-05 m-tests[1,age_group_70_79]
   - 1.0222431346184076e-04 m-tests[1,age_group_80_plus]
   - 1.39583e-06 m-tests[2,age_group_0_9]
   - 1.39793e-06 m-tests[2,age_group_10_19]
   - 4.42495e-06 m-tests[2,age_group_20_29]
   - 1.5617e-05 m-tests[2,age_group_30_39]
   - 1.71136e-05 m-tests[2,age_group_40_49]
   - 2.62941e-05 m-tests[2,age_group_50_59]
   - 3.05454e-05 m-tests[2,age_group_60_69]
   - 3.66248e-05 m-tests[2,age_group_70_79]
   - 6.7208e-05 m-tests[2,age_group_80_plus]
   + 5.51852e-06 m-tests[3,age_group_0_9]
   + 5.56453e-06 m-tests[3,age_group_10_19]
   + 1.74012e-05 m-tests[3,age_group_20_29]
   + 6.15005e-05 m-tests[3,age_group_30_39]
   + 6.80948e-05 m-tests[3,age_group_40_49]
   + 1.0400322984640017e-04 m-tests[3,age_group_50_59]
   + 1.2138057406456571e-04 m-tests[3,age_group_60_69]
   + 0.000143469 m-tests[3,age_group_70_79]
   + 2.9148169145459758e-04 m-tests[3,age_group_80_plus]
   <= 1.9996026280940332e+07
 ICUCAP[0]: - H-Bounces[0,age_group_0_9] - H-Bounces[0,age_group_10_19]
   - H-Bounces[0,age_group_20_29] - H-Bounces[0,age_group_30_39]
   - H-Bounces[0,age_group_40_49] - H-Bounces[0,age_group_50_59]
   - H-Bounces[0,age_group_60_69] - H-Bounces[0,age_group_70_79]
   - H-Bounces[0,age_group_80_plus] <= 1.9998412611802272e+07
 ICUCAP[1]: - 0.9475616151022548 ICU-Bounces[0,age_group_0_9]
   - 0.9475616151022548 ICU-Bounces[0,age_group_10_19]
   - 0.9475616151022548 ICU-Bounces[0,age_group_20_29]
   - 0.9475616151022549 ICU-Bounces[0,age_group_30_39]
   - 0.9475616151022549 ICU-Bounces[0,age_group_40_49]
   - 0.9475616151022549 ICU-Bounces[0,age_group_50_59]
   - 0.9475616151022548 ICU-Bounces[0,age_group_60_69]
   - 0.9475616151022549 ICU-Bounces[0,age_group_70_79]
   - 0.9475616151022549 ICU-Bounces[0,age_group_80_plus]
   - H-Bounces[1,age_group_0_9] - H-Bounces[1,age_group_10_19]
   - H-Bounces[1,age_group_20_29] - H-Bounces[1,age_group_30_39]
   - H-Bounces[1,age_group_40_49] - H-Bounces[1,age_group_50_59]
   - H-Bounces[1,age_group_60_69] - H-Bounces[1,age_group_70_79]
   - H-Bounces[1,age_group_80_plus] + 1.59465e-06 m-tests[0,age_group_0_9]
   + 1.62971e-06 m-tests[0,age_group_10_19]
   + 2.38823e-06 m-tests[0,age_group_20_29]
   + 1.20291e-05 m-tests[0,age_group_30_39]
   + 1.98691e-05 m-tests[0,age_group_40_49]
   + 4.07e-05 m-tests[0,age_group_50_59]
   + 5.50725e-05 m-tests[0,age_group_60_69]
   + 5.01108e-05 m-tests[0,age_group_70_79]
   + 1.22391e-05 m-tests[0,age_group_80_plus] <= 1.9998417538434416e+07
 ICUCAP[2]: - 0.9475616151022548 ICU-Bounces[1,age_group_0_9]
   - 0.9475616151022548 ICU-Bounces[1,age_group_10_19]
   - 0.9475616151022548 ICU-Bounces[1,age_group_20_29]
   - 0.9475616151022549 ICU-Bounces[1,age_group_30_39]
   - 0.9475616151022549 ICU-Bounces[1,age_group_40_49]
   - 0.9475616151022549 ICU-Bounces[1,age_group_50_59]
   - 0.9475616151022548 ICU-Bounces[1,age_group_60_69]
   - 0.9475616151022549 ICU-Bounces[1,age_group_70_79]
   - 0.9475616151022549 ICU-Bounces[1,age_group_80_plus]
   - H-Bounces[2,age_group_0_9] - H-Bounces[2,age_group_10_19]
   - H-Bounces[2,age_group_20_29] - H-Bounces[2,age_group_30_39]
   - H-Bounces[2,age_group_40_49] - H-Bounces[2,age_group_50_59]
   - H-Bounces[2,age_group_60_69] - H-Bounces[2,age_group_70_79]
   - H-Bounces[2,age_group_80_plus] - 3.98663e-07 m-tests[0,age_group_0_9]
   - 4.07427e-07 m-tests[0,age_group_10_19]
   - 5.97057e-07 m-tests[0,age_group_20_29]
   - 3.00727e-06 m-tests[0,age_group_30_39]
   - 4.96728e-06 m-tests[0,age_group_40_49]
   - 1.0175e-05 m-tests[0,age_group_50_59]
   - 1.37681e-05 m-tests[0,age_group_60_69]
   - 1.25277e-05 m-tests[0,age_group_70_79]
   - 3.05978e-06 m-tests[0,age_group_80_plus]
   + 1.59392e-06 m-tests[1,age_group_0_9]
   + 1.61414e-06 m-tests[1,age_group_10_19]
   + 2.33649e-06 m-tests[1,age_group_20_29]
   + 1.18621e-05 m-tests[1,age_group_30_39]
   + 1.9768e-05 m-tests[1,age_group_40_49]
   + 4.025e-05 m-tests[1,age_group_50_59]
   + 5.50362e-05 m-tests[1,age_group_60_69]
   + 4.99789e-05 m-tests[1,age_group_70_79]
   + 1.44926e-05 m-tests[1,age_group_80_plus] <= 1.9998420924022045e+07
 ICUCAP[3]: - 0.9475616151022548 ICU-Bounces[2,age_group_0_9]
   - 0.9475616151022548 ICU-Bounces[2,age_group_10_19]
   - 0.9475616151022548 ICU-Bounces[2,age_group_20_29]
   - 0.9475616151022549 ICU-Bounces[2,age_group_30_39]
   - 0.9475616151022549 ICU-Bounces[2,age_group_40_49]
   - 0.9475616151022549 ICU-Bounces[2,age_group_50_59]
   - 0.9475616151022548 ICU-Bounces[2,age_group_60_69]
   - 0.9475616151022549 ICU-Bounces[2,age_group_70_79]
   - 0.9475616151022549 ICU-Bounces[2,age_group_80_plus]
   - H-Bounces[3,age_group_0_9] - H-Bounces[3,age_group_10_19]
   - H-Bounces[3,age_group_20_29] - H-Bounces[3,age_group_30_39]
   - H-Bounces[3,age_group_40_49] - H-Bounces[3,age_group_50_59]
   - H-Bounces[3,age_group_60_69] - H-Bounces[3,age_group_70_79]
   - H-Bounces[3,age_group_80_plus] - 6.76756e-07 m-tests[0,age_group_0_9]
   - 6.91633e-07 m-tests[0,age_group_10_19]
   - 1.01354e-06 m-tests[0,age_group_20_29]
   - 5.10502e-06 m-tests[0,age_group_30_39]
   - 8.43227e-06 m-tests[0,age_group_40_49]
   - 1.72727e-05 m-tests[0,age_group_50_59]
   - 2.33723e-05 m-tests[0,age_group_60_69]
   - 2.12665e-05 m-tests[0,age_group_70_79]
   - 5.19417e-06 m-tests[0,age_group_80_plus]
   - 3.98481e-07 m-tests[1,age_group_0_9]
   - 4.03535e-07 m-tests[1,age_group_10_19]
   - 5.84123e-07 m-tests[1,age_group_20_29]
   - 2.96552e-06 m-tests[1,age_group_30_39]
   - 4.942e-06 m-tests[1,age_group_40_49]
   - 1.00625e-05 m-tests[1,age_group_50_59]
   - 1.37591e-05 m-tests[1,age_group_60_69]
   - 1.24947e-05 m-tests[1,age_group_70_79]
   - 3.62315e-06 m-tests[1,age_group_80_plus]
   + 1.59318e-06 m-tests[2,age_group_0_9]
   + 1.59558e-06 m-tests[2,age_group_10_19]
   + 2.29997e-06 m-tests[2,age_group_20_29]
   + 1.18102e-05 m-tests[2,age_group_30_39]
   + 1.95333e-05 m-tests[2,age_group_40_49]
   + 4.00949e-05 m-tests[2,age_group_50_59]
   + 5.43815e-05 m-tests[2,age_group_60_69]
   + 4.8573e-05 m-tests[2,age_group_70_79]
   + 1.59477e-05 m-tests[2,age_group_80_plus] <= 1.9998423112015959e+07
 ICUCAP[4]: - 0.9475616151022548 ICU-Bounces[3,age_group_0_9]
   - 0.9475616151022548 ICU-Bounces[3,age_group_10_19]
   - 0.9475616151022548 ICU-Bounces[3,age_group_20_29]
   - 0.9475616151022549 ICU-Bounces[3,age_group_30_39]
   - 0.9475616151022549 ICU-Bounces[3,age_group_40_49]
   - 0.9475616151022549 ICU-Bounces[3,age_group_50_59]
   - 0.9475616151022548 ICU-Bounces[3,age_group_60_69]
   - 0.9475616151022549 ICU-Bounces[3,age_group_70_79]
   - 0.9475616151022549 ICU-Bounces[3,age_group_80_plus]
   - H-Bounces[4,age_group_0_9] - H-Bounces[4,age_group_10_19]
   - H-Bounces[4,age_group_20_29] - H-Bounces[4,age_group_30_39]
   - H-Bounces[4,age_group_40_49] - H-Bounces[4,age_group_50_59]
   - H-Bounces[4,age_group_60_69] - H-Bounces[4,age_group_70_79]
   - H-Bounces[4,age_group_80_plus] - 5.07567e-07 m-tests[0,age_group_0_9]
   - 5.18725e-07 m-tests[0,age_group_10_19]
   - 7.60156e-07 m-tests[0,age_group_20_29]
   - 3.82877e-06 m-tests[0,age_group_30_39]
   - 6.3242e-06 m-tests[0,age_group_40_49]
   - 1.29545e-05 m-tests[0,age_group_50_59]
   - 1.75292e-05 m-tests[0,age_group_60_69]
   - 1.59499e-05 m-tests[0,age_group_70_79]
   - 3.89563e-06 m-tests[0,age_group_80_plus]
   - 6.76446e-07 m-tests[1,age_group_0_9]
   - 6.85025e-07 m-tests[1,age_group_10_19]
   - 9.91584e-07 m-tests[1,age_group_20_29]
   - 5.03416e-06 m-tests[1,age_group_30_39]
   - 8.38935e-06 m-tests[1,age_group_40_49]
   - 1.70817e-05 m-tests[1,age_group_50_59]
   - 2.33568e-05 m-tests[1,age_group_60_69]
   - 2.12106e-05 m-tests[1,age_group_70_79]
   - 6.15053e-06 m-tests[1,age_group_80_plus]
   - 3.98295e-07 m-tests[2,age_group_0_9]
   - 3.98895e-07 m-tests[2,age_group_10_19]
   - 5.74993e-07 m-tests[2,age_group_20_29]
   - 2.95256e-06 m-tests[2,age_group_30_39]
   - 4.88333e-06 m-tests[2,age_group_40_49]
   - 1.00237e-05 m-tests[2,age_group_50_59]
   - 1.35954e-05 m-tests[2,age_group_60_69]
   - 1.21433e-05 m-tests[2,age_group_70_79]
   - 3.98691e-06 m-tests[2,age_group_80_plus]
   + 1.57469e-06 m-tests[3,age_group_0_9]
   + 1.58782e-06 m-tests[3,age_group_10_19]
   + 2.26117e-06 m-tests[3,age_group_20_29]
   + 1.16273e-05 m-tests[3,age_group_30_39]
   + 1.94307e-05 m-tests[3,age_group_40_49]
   + 3.96476e-05 m-tests[3,age_group_50_59]
   + 5.40249e-05 m-tests[3,age_group_60_69]
   + 4.75683e-05 m-tests[3,age_group_70_79]
   + 1.72913e-05 m-tests[3,age_group_80_plus] <= 1.9998425883919302e+07
 R10: H-Bounces[0,age_group_0_9] <= 2.970153381611387
 R11: H-Bounces[0,age_group_10_19] <= 2.942651527994023
 R12: H-Bounces[0,age_group_20_29] <= 9.33261071679072
 R13: H-Bounces[0,age_group_30_39] <= 33.08757733148046
 R14: H-Bounces[0,age_group_40_49] <= 38.68553416688616
 R15: H-Bounces[0,age_group_50_59] <= 54.47375008726939
 R16: H-Bounces[0,age_group_60_69] <= 48.26211702214474
 R17: H-Bounces[0,age_group_70_79] <= 39.6376072219559
 R18: H-Bounces[0,age_group_80_plus] <= 64.11721540635126
 R19: H-Bounces[1,age_group_0_9] <= 2.966532822384261
 R20: H-Bounces[1,age_group_10_19] <= 2.934060921902055
 R21: H-Bounces[1,age_group_20_29] <= 9.315306640770588
 R22: H-Bounces[1,age_group_30_39] <= 33.20016061909929
 R23: H-Bounces[1,age_group_40_49] <= 38.62914967612205
 R24: H-Bounces[1,age_group_50_59] <= 54.38980503610244
 R25: H-Bounces[1,age_group_60_69] <= 48.1936134959255
 R26: H-Bounces[1,age_group_70_79] <= 39.53059680852234
 R27: H-Bounces[1,age_group_80_plus] <= 64.07548775406585
 R28: H-Bounces[2,age_group_0_9] + 1.39712e-06 m-tests[0,age_group_0_9]
   <= 2.965027416590231
 R29: H-Bounces[2,age_group_10_19] + 1.42783e-06 m-tests[0,age_group_10_19]
   <= 2.943821508218351
 R30: H-Bounces[2,age_group_20_29] + 4.59474e-06 m-tests[0,age_group_20_29]
   <= 9.34819918718569
 R31: H-Bounces[2,age_group_30_39] + 1.59064e-05 m-tests[0,age_group_30_39]
   <= 33.38740061195724
 R32: H-Bounces[2,age_group_40_49] + 1.74079e-05 m-tests[0,age_group_40_49]
   <= 38.55603544700771
 R33: H-Bounces[2,age_group_50_59] + 2.66909e-05 m-tests[0,age_group_50_59]
   <= 54.62310259265933
 R34: H-Bounces[2,age_group_60_69] + 3.09336e-05 m-tests[0,age_group_60_69]
   <= 48.09494104722472
 R35: H-Bounces[2,age_group_70_79] + 3.77844e-05 m-tests[0,age_group_70_79]
   <= 39.43060305154411
 R36: H-Bounces[2,age_group_80_plus]
   + 5.15792e-05 m-tests[0,age_group_80_plus] <= 64.18966838653041
 R37: H-Bounces[3,age_group_0_9] + 1.04784e-06 m-tests[0,age_group_0_9]
   + 1.39648e-06 m-tests[1,age_group_0_9] <= 2.964548765303922
 R38: H-Bounces[3,age_group_10_19] + 1.07087e-06 m-tests[0,age_group_10_19]
   + 1.41419e-06 m-tests[1,age_group_10_19] <= 2.956485448198439
 R39: H-Bounces[3,age_group_20_29] + 3.44606e-06 m-tests[0,age_group_20_29]
   + 4.49521e-06 m-tests[1,age_group_20_29] <= 9.223796942580529
 R40: H-Bounces[3,age_group_30_39] + 1.19298e-05 m-tests[0,age_group_30_39]
   + 1.56856e-05 m-tests[1,age_group_30_39] <= 32.89545692485024
 R41: H-Bounces[3,age_group_40_49] + 1.30559e-05 m-tests[0,age_group_40_49]
   + 1.73193e-05 m-tests[1,age_group_40_49] <= 38.45531936034433
 R42: H-Bounces[3,age_group_50_59] + 2.00182e-05 m-tests[0,age_group_50_59]
   + 2.63958e-05 m-tests[1,age_group_50_59] <= 54.3735978384665
 R43: H-Bounces[3,age_group_60_69] + 2.32002e-05 m-tests[0,age_group_60_69]
   + 3.09132e-05 m-tests[1,age_group_60_69] <= 48.36838832095752
 R44: H-Bounces[3,age_group_70_79] + 2.83383e-05 m-tests[0,age_group_70_79]
   + 3.76849e-05 m-tests[1,age_group_70_79] <= 40.12355964867034
 R45: H-Bounces[3,age_group_80_plus]
   + 3.86844e-05 m-tests[0,age_group_80_plus]
   + 6.1076e-05 m-tests[1,age_group_80_plus] <= 64.81033252682077
 R46: H-Bounces[4,age_group_0_9] + 7.85878e-07 m-tests[0,age_group_0_9]
   + 1.04736e-06 m-tests[1,age_group_0_9]
   + 1.39583e-06 m-tests[2,age_group_0_9] <= 2.986046670121599
 R47: H-Bounces[4,age_group_10_19] + 8.03155e-07 m-tests[0,age_group_10_19]
   + 1.06064e-06 m-tests[1,age_group_10_19]
   + 1.39793e-06 m-tests[2,age_group_10_19] <= 2.95615063928299
 R48: H-Bounces[4,age_group_20_29] + 2.58454e-06 m-tests[0,age_group_20_29]
   + 3.3714e-06 m-tests[1,age_group_20_29]
   + 4.42495e-06 m-tests[2,age_group_20_29] <= 9.05282456820793
 R49: H-Bounces[4,age_group_30_39] + 8.94733e-06 m-tests[0,age_group_30_39]
   + 1.17642e-05 m-tests[1,age_group_30_39]
   + 1.5617e-05 m-tests[2,age_group_30_39] <= 32.43512360672273
 R50: H-Bounces[4,age_group_40_49] + 9.79192e-06 m-tests[0,age_group_40_49]
   + 1.29894e-05 m-tests[1,age_group_40_49]
   + 1.71136e-05 m-tests[2,age_group_40_49] <= 38.04793412457456
 R51: H-Bounces[4,age_group_50_59] + 1.50136e-05 m-tests[0,age_group_50_59]
   + 1.97969e-05 m-tests[1,age_group_50_59]
   + 2.62941e-05 m-tests[2,age_group_50_59] <= 54.30664861945442
 R52: H-Bounces[4,age_group_60_69] + 1.74002e-05 m-tests[0,age_group_60_69]
   + 2.31849e-05 m-tests[1,age_group_60_69]
   + 3.05454e-05 m-tests[2,age_group_60_69] <= 48.39271851255783
 R53: H-Bounces[4,age_group_70_79] + 2.12537e-05 m-tests[0,age_group_70_79]
   + 2.82637e-05 m-tests[1,age_group_70_79]
   + 3.66248e-05 m-tests[2,age_group_70_79] <= 40.57386737055921
 R54: H-Bounces[4,age_group_80_plus]
   + 2.90133e-05 m-tests[0,age_group_80_plus]
   + 4.5807e-05 m-tests[1,age_group_80_plus]
   + 6.7208e-05 m-tests[2,age_group_80_plus] <= 64.67787467781393
 R55: ICU-Bounces[0,age_group_0_9] <= 0.8475244867837118
 R56: ICU-Bounces[0,age_group_10_19] <= 0.8396769141576774
 R57: ICU-Bounces[0,age_group_20_29] <= 1.212712127040602
 R58: ICU-Bounces[0,age_group_30_39] <= 6.255558615583107
 R59: ICU-Bounces[0,age_group_40_49] <= 11.03880280854592
 R60: ICU-Bounces[0,age_group_50_59] <= 20.76623622111375
 R61: ICU-Bounces[0,age_group_60_69] <= 21.48082665147483
 R62: ICU-Bounces[0,age_group_70_79] <= 13.1421627140706
 R63: ICU-Bounces[0,age_group_80_plus] <= 3.803563625800498
 R64: ICU-Bounces[1,age_group_0_9] <= 0.8464913709117043
 R65: ICU-Bounces[1,age_group_10_19] <= 0.8372256101057277
 R66: ICU-Bounces[1,age_group_20_29] <= 1.210463574789398
 R67: ICU-Bounces[1,age_group_30_39] <= 6.276843684229235
 R68: ICU-Bounces[1,age_group_40_49] <= 11.02271366079575
 R69: ICU-Bounces[1,age_group_50_59] <= 20.73423506901143
 R70: ICU-Bounces[1,age_group_60_69] <= 21.45033664269516
 R71: ICU-Bounces[1,age_group_70_79] <= 13.10668256367785
 R72: ICU-Bounces[1,age_group_80_plus] <= 3.801088256597127
 R73: ICU-Bounces[2,age_group_0_9] + 3.98663e-07 m-tests[0,age_group_0_9]
   <= 0.846061807818806
 R74: ICU-Bounces[2,age_group_10_19]
   + 4.07427e-07 m-tests[0,age_group_10_19] <= 0.840010764555879
 R75: ICU-Bounces[2,age_group_20_29]
   + 5.97057e-07 m-tests[0,age_group_20_29] <= 1.214737747487406
 R76: ICU-Bounces[2,age_group_30_39]
   + 3.00727e-06 m-tests[0,age_group_30_39] <= 6.312243397504401
 R77: ICU-Bounces[2,age_group_40_49]
   + 4.96728e-06 m-tests[0,age_group_40_49] <= 11.00185073166544
 R78: ICU-Bounces[2,age_group_50_59]
   + 1.0175e-05 m-tests[0,age_group_50_59] <= 20.82317170659389
 R79: ICU-Bounces[2,age_group_60_69]
   + 1.37681e-05 m-tests[0,age_group_60_69] <= 21.40641884760869
 R80: ICU-Bounces[2,age_group_70_79]
   + 1.25277e-05 m-tests[0,age_group_70_79] <= 13.07352884132421
 R81: ICU-Bounces[2,age_group_80_plus]
   + 3.05978e-06 m-tests[0,age_group_80_plus] <= 3.80786168394672
 R82: ICU-Bounces[3,age_group_0_9] + 2.98997e-07 m-tests[0,age_group_0_9]
   + 3.98481e-07 m-tests[1,age_group_0_9] <= 0.845925226089294
 R83: ICU-Bounces[3,age_group_10_19]
   + 3.05571e-07 m-tests[0,age_group_10_19]
   + 4.03535e-07 m-tests[1,age_group_10_19] <= 0.8436243823908143
 R84: ICU-Bounces[3,age_group_20_29]
   + 4.47793e-07 m-tests[0,age_group_20_29]
   + 5.84123e-07 m-tests[1,age_group_20_29] <= 1.198572484064137
 R85: ICU-Bounces[3,age_group_30_39]
   + 2.25545e-06 m-tests[0,age_group_30_39]
   + 2.96552e-06 m-tests[1,age_group_30_39] <= 6.219236208146478
 R86: ICU-Bounces[3,age_group_40_49]
   + 3.72546e-06 m-tests[0,age_group_40_49]
   + 4.942e-06 m-tests[1,age_group_40_49] <= 10.97311169408283
 R87: ICU-Bounces[3,age_group_50_59]
   + 7.63125e-06 m-tests[0,age_group_50_59]
   + 1.00625e-05 m-tests[1,age_group_50_59] <= 20.72805663455353
 R88: ICU-Bounces[3,age_group_60_69]
   + 1.03261e-05 m-tests[0,age_group_60_69]
   + 1.37591e-05 m-tests[1,age_group_60_69] <= 21.52812659372098
 R89: ICU-Bounces[3,age_group_70_79]
   + 9.39578e-06 m-tests[0,age_group_70_79]
   + 1.24947e-05 m-tests[1,age_group_70_79] <= 13.30328409123691
 R90: ICU-Bounces[3,age_group_80_plus]
   + 2.29484e-06 m-tests[0,age_group_80_plus]
   + 3.62315e-06 m-tests[1,age_group_80_plus] <= 3.844680743116487
 R91: ICU-Bounces[4,age_group_0_9] + 2.24248e-07 m-tests[0,age_group_0_9]
   + 2.98861e-07 m-tests[1,age_group_0_9]
   + 3.98295e-07 m-tests[2,age_group_0_9] <= 0.8520595896748007
 R92: ICU-Bounces[4,age_group_10_19]
   + 2.29178e-07 m-tests[0,age_group_10_19]
   + 3.02651e-07 m-tests[1,age_group_10_19]
   + 3.98895e-07 m-tests[2,age_group_10_19] <= 0.8435288456565856
 R93: ICU-Bounces[4,age_group_20_29]
   + 3.35845e-07 m-tests[0,age_group_20_29]
   + 4.38092e-07 m-tests[1,age_group_20_29]
   + 5.74993e-07 m-tests[2,age_group_20_29] <= 1.176355734851878
 R94: ICU-Bounces[4,age_group_30_39]
   + 1.69159e-06 m-tests[0,age_group_30_39]
   + 2.22414e-06 m-tests[1,age_group_30_39]
   + 2.95256e-06 m-tests[2,age_group_30_39] <= 6.132205295444605
 R95: ICU-Bounces[4,age_group_40_49]
   + 2.7941e-06 m-tests[0,age_group_40_49]
   + 3.7065e-06 m-tests[1,age_group_40_49]
   + 4.88333e-06 m-tests[2,age_group_40_49] <= 10.85686552140816
 R96: ICU-Bounces[4,age_group_50_59]
   + 5.72344e-06 m-tests[0,age_group_50_59]
   + 7.54688e-06 m-tests[1,age_group_50_59]
   + 1.00237e-05 m-tests[2,age_group_50_59] <= 20.7025345565876
 R97: ICU-Bounces[4,age_group_60_69]
   + 7.74458e-06 m-tests[0,age_group_60_69]
   + 1.03193e-05 m-tests[1,age_group_60_69]
   + 1.35954e-05 m-tests[2,age_group_60_69] <= 21.5389556385373
 R98: ICU-Bounces[4,age_group_70_79]
   + 7.04683e-06 m-tests[0,age_group_70_79]
   + 9.37104e-06 m-tests[1,age_group_70_79]
   + 1.21433e-05 m-tests[2,age_group_70_79] <= 13.45258718411351
 R99: ICU-Bounces[4,age_group_80_plus]
   + 1.72113e-06 m-tests[0,age_group_80_plus]
   + 2.71737e-06 m-tests[1,age_group_80_plus]
   + 3.98691e-06 m-tests[2,age_group_80_plus] <= 3.836823074107607
 R100: m-tests[0,age_group_0_9] + m-tests[0,age_group_10_19]
   + m-tests[0,age_group_20_29] + m-tests[0,age_group_30_39]
   + m-tests[0,age_group_40_49] + m-tests[0,age_group_50_59]
   + m-tests[0,age_group_60_69] + m-tests[0,age_group_70_79]
   + m-tests[0,age_group_80_plus] <= 100000
 R101: m-tests[1,age_group_0_9] + m-tests[1,age_group_10_19]
   + m-tests[1,age_group_20_29] + m-tests[1,age_group_30_39]
   + m-tests[1,age_group_40_49] + m-tests[1,age_group_50_59]
   + m-tests[1,age_group_60_69] + m-tests[1,age_group_70_79]
   + m-tests[1,age_group_80_plus] <= 100000
 R102: m-tests[2,age_group_0_9] + m-tests[2,age_group_10_19]
   + m-tests[2,age_group_20_29] + m-tests[2,age_group_30_39]
   + m-tests[2,age_group_40_49] + m-tests[2,age_group_50_59]
   + m-tests[2,age_group_60_69] + m-tests[2,age_group_70_79]
   + m-tests[2,age_group_80_plus] <= 100000
 R103: m-tests[3,age_group_0_9] + m-tests[3,age_group_10_19]
   + m-tests[3,age_group_20_29] + m-tests[3,age_group_30_39]
   + m-tests[3,age_group_40_49] + m-tests[3,age_group_50_59]
   + m-tests[3,age_group_60_69] + m-tests[3,age_group_70_79]
   + m-tests[3,age_group_80_plus] <= 100000
 R104: m-tests[4,age_group_0_9] + m-tests[4,age_group_10_19]
   + m-tests[4,age_group_20_29] + m-tests[4,age_group_30_39]
   + m-tests[4,age_group_40_49] + m-tests[4,age_group_50_59]
   + m-tests[4,age_group_60_69] + m-tests[4,age_group_70_79]
   + m-tests[4,age_group_80_plus] <= 100000
 R105: a-tests[0,age_group_0_9] + a-tests[0,age_group_10_19]
   + a-tests[0,age_group_20_29] + a-tests[0,age_group_30_39]
   + a-tests[0,age_group_40_49] + a-tests[0,age_group_50_59]
   + a-tests[0,age_group_60_69] + a-tests[0,age_group_70_79]
   + a-tests[0,age_group_80_plus] <= 100000
 R106: a-tests[1,age_group_0_9] + a-tests[1,age_group_10_19]
   + a-tests[1,age_group_20_29] + a-tests[1,age_group_30_39]
   + a-tests[1,age_group_40_49] + a-tests[1,age_group_50_59]
   + a-tests[1,age_group_60_69] + a-tests[1,age_group_70_79]
   + a-tests[1,age_group_80_plus] <= 100000
 R107: a-tests[2,age_group_0_9] + a-tests[2,age_group_10_19]
   + a-tests[2,age_group_20_29] + a-tests[2,age_group_30_39]
   + a-tests[2,age_group_40_49] + a-tests[2,age_group_50_59]
   + a-tests[2,age_group_60_69] + a-tests[2,age_group_70_79]
   + a-tests[2,age_group_80_plus] <= 100000
 R108: a-tests[3,age_group_0_9] + a-tests[3,age_group_10_19]
   + a-tests[3,age_group_20_29] + a-tests[3,age_group_30_39]
   + a-tests[3,age_group_40_49] + a-tests[3,age_group_50_59]
   + a-tests[3,age_group_60_69] + a-tests[3,age_group_70_79]
   + a-tests[3,age_group_80_plus] <= 100000
 R109: a-tests[4,age_group_0_9] + a-tests[4,age_group_10_19]
   + a-tests[4,age_group_20_29] + a-tests[4,age_group_30_39]
   + a-tests[4,age_group_40_49] + a-tests[4,age_group_50_59]
   + a-tests[4,age_group_60_69] + a-tests[4,age_group_70_79]
   + a-tests[4,age_group_80_plus] <= 100000
Bounds
 a-tests[0,age_group_0_9] <= 100000
 a-tests[0,age_group_10_19] <= 100000
 a-tests[0,age_group_20_29] <= 100000
 a-tests[0,age_group_30_39] <= 100000
 a-tests[0,age_group_40_49] <= 100000
 a-tests[0,age_group_50_59] <= 100000
 a-tests[0,age_group_60_69] <= 100000
 a-tests[0,age_group_70_79] <= 100000
 a-tests[0,age_group_80_plus] <= 100000
 a-tests[1,age_group_0_9] <= 100000
 a-tests[1,age_group_10_19] <= 100000
 a-tests[1,age_group_20_29] <= 100000
 a-tests[1,age_group_30_39] <= 100000
 a-tests[1,age_group_40_49] <= 100000
 a-tests[1,age_group_50_59] <= 100000
 a-tests[1,age_group_60_69] <= 100000
 a-tests[1,age_group_70_79] <= 100000
 a-tests[1,age_group_80_plus] <= 100000
 a-tests[2,age_group_0_9] <= 100000
 a-tests[2,age_group_10_19] <= 100000
 a-tests[2,age_group_20_29] <= 100000
 a-tests[2,age_group_30_39] <= 100000
 a-tests[2,age_group_40_49] <= 100000
 a-tests[2,age_group_50_59] <= 100000
 a-tests[2,age_group_60_69] <= 100000
 a-tests[2,age_group_70_79] <= 100000
 a-tests[2,age_group_80_plus] <= 100000
 a-tests[3,age_group_0_9] <= 100000
 a-tests[3,age_group_10_19] <= 100000
 a-tests[3,age_group_20_29] <= 100000
 a-tests[3,age_group_30_39] <= 100000
 a-tests[3,age_group_40_49] <= 100000
 a-tests[3,age_group_50_59] <= 100000
 a-tests[3,age_group_60_69] <= 100000
 a-tests[3,age_group_70_79] <= 100000
 a-tests[3,age_group_80_plus] <= 100000
 a-tests[4,age_group_0_9] <= 100000
 a-tests[4,age_group_10_19] <= 100000
 a-tests[4,age_group_20_29] <= 100000
 a-tests[4,age_group_30_39] <= 100000
 a-tests[4,age_group_40_49] <= 100000
 a-tests[4,age_group_50_59] <= 100000
 a-tests[4,age_group_60_69] <= 100000
 a-tests[4,age_group_70_79] <= 100000
 a-tests[4,age_group_80_plus] <= 100000
 m-tests[0,age_group_0_9] <= 100000
 m-tests[0,age_group_10_19] <= 100000
 m-tests[0,age_group_20_29] <= 100000
 m-tests[0,age_group_30_39] <= 100000
 m-tests[0,age_group_40_49] <= 100000
 m-tests[0,age_group_50_59] <= 100000
 m-tests[0,age_group_60_69] <= 100000
 m-tests[0,age_group_70_79] <= 100000
 m-tests[0,age_group_80_plus] <= 100000
 m-tests[1,age_group_0_9] <= 100000
 m-tests[1,age_group_10_19] <= 100000
 m-tests[1,age_group_20_29] <= 100000
 m-tests[1,age_group_30_39] <= 100000
 m-tests[1,age_group_40_49] <= 100000
 m-tests[1,age_group_50_59] <= 100000
 m-tests[1,age_group_60_69] <= 100000
 m-tests[1,age_group_70_79] <= 100000
 m-tests[1,age_group_80_plus] <= 100000
 m-tests[2,age_group_0_9] <= 100000
 m-tests[2,age_group_10_19] <= 100000
 m-tests[2,age_group_20_29] <= 100000
 m-tests[2,age_group_30_39] <= 100000
 m-tests[2,age_group_40_49] <= 100000
 m-tests[2,age_group_50_59] <= 100000
 m-tests[2,age_group_60_69] <= 100000
 m-tests[2,age_group_70_79] <= 100000
 m-tests[2,age_group_80_plus] <= 100000
 m-tests[3,age_group_0_9] <= 100000
 m-tests[3,age_group_10_19] <= 100000
 m-tests[3,age_group_20_29] <= 100000
 m-tests[3,age_group_30_39] <= 100000
 m-tests[3,age_group_40_49] <= 100000
 m-tests[3,age_group_50_59] <= 100000
 m-tests[3,age_group_60_69] <= 100000
 m-tests[3,age_group_70_79] <= 100000
 m-tests[3,age_group_80_plus] <= 100000
 m-tests[4,age_group_0_9] <= 100000
 m-tests[4,age_group_10_19] <= 100000
 m-tests[4,age_group_20_29] <= 100000
 m-tests[4,age_group_30_39] <= 100000
 m-tests[4,age_group_40_49] <= 100000
 m-tests[4,age_group_50_59] <= 100000
 m-tests[4,age_group_60_69] <= 100000
 m-tests[4,age_group_70_79] <= 100000
 m-tests[4,age_group_80_plus] <= 100000
 Constant = 1
End
